
0
Gamma
       9      11       7
  0.0000  0.0000  0.0000
